p cnf 12 73 
c Factors encoded in variables 1-6 and 7-12
c Target number: 2279
c Factors: 53 x 43
-5 4 -3 11 -9 8 0
-5 -4 11 -10 0
4 10 0
-5 -2 11 -10 0
2 8 0
5 3 11 0
-4 -11 -10 -9 0
5 -4 -3 10 -9 -8 0
5 4 3 10 0
5 3 -2 11 10 0
-5 4 11 10 0
-3 -11 -10 -9 0
5 11 9 0
-4 -3 -2 -11 -8 0
-4 10 -9 -8 0
5 4 2 -11 10 -9 0
-5 -10 -9 0
-5 -4 -10 -9 0
1 0
-4 10 9 8 0
-5 -4 -11 0
-5 -3 2 -10 9 8 0
4 3 10 -9 8 0
5 -4 -11 -8 0
-4 -3 -11 -9 0
4 -3 -2 11 -10 -9 0
-4 3 -10 8 0
7 0
5 4 3 9 0
9 8 0
-2 -10 -8 0
5 2 -11 10 0
-5 2 11 10 0
4 3 2 -10 0
-5 -11 0
-5 4 10 0
5 -4 -3 11 10 -8 0
5 4 2 -10 9 0
4 -10 9 8 0
-4 -2 -10 -8 0
-4 -3 -10 -8 0
-4 -3 10 0
5 4 -3 10 -9 0
3 9 0
-5 4 2 -11 -10 9 0
12 0
-5 -4 -11 10 -9 0
5 11 10 0
-4 -3 -2 10 0
-5 2 -11 0
-2 -11 -10 -9 -8 0
-5 -11 9 0
-4 3 2 10 0
4 -3 -2 10 0
4 -3 -2 -10 0
5 -2 -11 -10 0
-4 -3 -10 9 0
-5 -4 -2 11 0
-5 -4 3 9 0
-3 -2 11 -10 9 -8 0
4 10 9 0
-2 -8 0
5 4 11 0
-3 -9 0
6 0
5 -4 -3 2 11 -10 0
5 -4 -3 2 11 -10 -9 0
-5 -3 -11 -10 0
4 -10 -9 -8 0
5 -4 -3 11 -10 -9 8 0
5 4 -11 10 0
3 2 11 -10 0
4 -3 2 10 9 0
